certificates/rado_a5_c23_N8.cnf
c Rad2 upper bound instance: x1 + 5*x2 - x3 = 23, interval [1,8]
p cnf 8 22
1 3 5 0
-1 -3 -5 0
1 6 8 0
-1 -6 -8 0
2 4 5 0
-2 -4 -5 0
3 5 0
-3 -5 0
1 4 0
-1 -4 0
4 5 6 0
-4 -5 -6 0
5 7 0
-5 -7 0
3 4 6 0
-3 -4 -6 0
5 6 8 0
-5 -6 -8 0
4 7 0
-4 -7 0
4 5 8 0
-4 -5 -8 0
