certificates/rado_a5_c23_N8.drat
-7 -8 0
-8 0
-5 -4 0
d -5 -6 -4 0
7 0
-5 0
-4 0
3 0
6 0
0
